(set-logic ALL)
(declare-fun seed0_T_1 () Bool)
(declare-fun seed0_T_2 () Bool)
(declare-fun seed0_var_0xINPUT_140054 () String)
(assert (and (or (= seed0_T_1 (not (= "2vbcJ9lN6J" seed0_var_0xINPUT_140054))) (and (str.contains (str.++ seed0_var_0xINPUT_140054 "") (str.++ seed0_var_0xINPUT_140054 "0hQqt4WBpc")) (str.contains (str.++ seed0_var_0xINPUT_140054 "RzbKHgj5") (str.++ seed0_var_0xINPUT_140054 "euYicV")))) (or seed0_T_1 (not (str.prefixof (str.++ seed0_var_0xINPUT_140054 "mM0TbU") (str.++ seed0_var_0xINPUT_140054 "3khfqeHPGMZDbOE6s")))) (or (= seed0_T_2 (not (= seed0_var_0xINPUT_140054 ""))) (or (str.suffixof (str.++ seed0_var_0xINPUT_140054 "xKsf6i") (str.++ seed0_var_0xINPUT_140054 "e6rT9ChS")) (str.suffixof (str.++ seed0_var_0xINPUT_140054 "sbLgnu1eQCF8xA") (str.++ seed0_var_0xINPUT_140054 "yIEWVPGJ1Lg6hsMOci3q")))) (or seed0_T_2 (str.contains (str.++ seed0_var_0xINPUT_140054 "MoOK6qRmsWT") (str.++ seed0_var_0xINPUT_140054 "67f")))))
(check-sat)
(exit)